nj = 20;
due =  [1128 1029 924 1317 900 978 1185 1329 822 1041 1242 804 1146 1104 1062 954
     963 1140 975 975];
nm = 15;
Ops = {
 <1 1 6 8 0 16 4 1>
 <1 1 6 6 0 16 6 2>
 <1 1 6 5 0 16 9 3>
 <1 1 6 4 0 16 12 4>
 <1 1 6 3 0 16 17 5>
 <1 2 4 73 0 6 5 1>
 <1 2 4 56 0 6 8 2>
 <1 2 4 47 0 6 12 3>
 <1 2 4 41 0 6 15 4>
 <1 2 4 34 0 6 22 5>
 <1 3 1 69 0 4 3 1>
 <1 3 1 53 0 4 5 2>
 <1 3 1 44 0 4 7 3>
 <1 3 1 39 0 4 9 4>
 <1 3 1 32 0 4 13 5>
 <1 4 3 38 0 1 5 1>
 <1 4 3 29 0 1 8 2>
 <1 4 3 24 0 1 12 3>
 <1 4 3 21 0 1 15 4>
 <1 4 3 18 0 1 22 5>
 <1 5 7 6 0 3 3 1>
 <1 5 7 4 0 3 5 2>
 <1 5 7 3 0 3 7 3>
 <1 5 7 3 0 3 9 4>
 <1 5 7 2 0 3 13 5>
 <1 6 5 62 0 7 5 1>
 <1 6 5 47 0 7 8 2>
 <1 6 5 40 0 7 12 3>
 <1 6 5 35 0 7 15 4>
 <1 6 5 29 0 7 22 5>
 <1 7 2 78 0 5 3 1>
 <1 7 2 60 0 5 5 2>
 <1 7 2 50 0 5 7 3>
 <1 7 2 44 0 5 9 4>
 <1 7 2 37 0 5 13 5>
 <1 8 10 79 0 2 4 1>
 <1 8 10 60 0 2 6 2>
 <1 8 10 50 0 2 9 3>
 <1 8 10 45 0 2 12 4>
 <1 8 10 37 0 2 17 5>
 <1 9 9 59 0 10 4 1>
 <1 9 9 45 0 10 6 2>
 <1 9 9 38 0 10 9 3>
 <1 9 9 33 0 10 12 4>
 <1 9 9 28 0 10 17 5>
 <1 10 14 77 0 9 4 1>
 <1 10 14 59 0 9 6 2>
 <1 10 14 49 0 9 9 3>
 <1 10 14 44 0 9 12 4>
 <1 10 14 36 0 9 17 5>
 <1 11 12 22 0 14 4 1>
 <1 11 12 16 0 14 6 2>
 <1 11 12 14 0 14 9 3>
 <1 11 12 12 0 14 12 4>
 <1 11 12 10 0 14 17 5>
 <1 12 11 80 0 12 3 1>
 <1 12 11 61 0 12 5 2>
 <1 12 11 51 0 12 7 3>
 <1 12 11 45 0 12 9 4>
 <1 12 11 38 0 12 13 5>
 <1 13 13 58 0 11 4 1>
 <1 13 13 44 0 11 6 2>
 <1 13 13 37 0 11 9 3>
 <1 13 13 33 0 11 12 4>
 <1 13 13 27 0 11 17 5>
 <1 14 15 49 0 13 3 1>
 <1 14 15 37 0 13 5 2>
 <1 14 15 31 0 13 7 3>
 <1 14 15 28 0 13 9 4>
 <1 14 15 23 0 13 13 5>
 <1 15 8 48 1 15 3 1>
 <1 15 8 36 1 15 5 2>
 <1 15 8 30 1 15 7 3>
 <1 15 8 27 1 15 9 4>
 <1 15 8 22 1 15 13 5>
 <2 1 4 34 0 16 3 1>
 <2 1 4 26 0 16 5 2>
 <2 1 4 21 0 16 7 3>
 <2 1 4 19 0 16 9 4>
 <2 1 4 16 0 16 13 5>
 <2 2 5 29 0 4 4 1>
 <2 2 5 22 0 4 6 2>
 <2 2 5 18 0 4 9 3>
 <2 2 5 16 0 4 12 4>
 <2 2 5 13 0 4 17 5>
 <2 3 3 69 0 5 4 1>
 <2 3 3 53 0 5 6 2>
 <2 3 3 44 0 5 9 3>
 <2 3 3 39 0 5 12 4>
 <2 3 3 32 0 5 17 5>
 <2 4 1 5 0 3 3 1>
 <2 4 1 3 0 3 5 2>
 <2 4 1 3 0 3 7 3>
 <2 4 1 2 0 3 9 4>
 <2 4 1 2 0 3 13 5>
 <2 5 6 63 0 1 3 1>
 <2 5 6 48 0 1 5 2>
 <2 5 6 40 0 1 7 3>
 <2 5 6 36 0 1 9 4>
 <2 5 6 30 0 1 13 5>
 <2 6 2 82 0 6 3 1>
 <2 6 2 63 0 6 5 2>
 <2 6 2 52 0 6 7 3>
 <2 6 2 46 0 6 9 4>
 <2 6 2 39 0 6 13 5>
 <2 7 7 94 0 2 5 1>
 <2 7 7 72 0 2 8 2>
 <2 7 7 60 0 2 12 3>
 <2 7 7 53 0 2 15 4>
 <2 7 7 44 0 2 22 5>
 <2 8 15 17 0 7 4 1>
 <2 8 15 13 0 7 6 2>
 <2 8 15 10 0 7 9 3>
 <2 8 15 9 0 7 12 4>
 <2 8 15 8 0 7 17 5>
 <2 9 12 94 0 15 3 1>
 <2 9 12 72 0 15 5 2>
 <2 9 12 60 0 15 7 3>
 <2 9 12 53 0 15 9 4>
 <2 9 12 44 0 15 13 5>
 <2 10 10 29 0 12 4 1>
 <2 10 10 22 0 12 6 2>
 <2 10 10 18 0 12 9 3>
 <2 10 10 16 0 12 12 4>
 <2 10 10 13 0 12 17 5>
 <2 11 11 5 0 10 4 1>
 <2 11 11 3 0 10 6 2>
 <2 11 11 3 0 10 9 3>
 <2 11 11 2 0 10 12 4>
 <2 11 11 2 0 10 17 5>
 <2 12 14 75 0 11 4 1>
 <2 12 14 57 0 11 6 2>
 <2 12 14 48 0 11 9 3>
 <2 12 14 42 0 11 12 4>
 <2 12 14 35 0 11 17 5>
 <2 13 8 15 0 14 3 1>
 <2 13 8 11 0 14 5 2>
 <2 13 8 9 0 14 7 3>
 <2 13 8 8 0 14 9 4>
 <2 13 8 7 0 14 13 5>
 <2 14 9 61 0 8 5 1>
 <2 14 9 46 0 8 8 2>
 <2 14 9 39 0 8 12 3>
 <2 14 9 34 0 8 15 4>
 <2 14 9 29 0 8 22 5>
 <2 15 13 61 1 9 4 1>
 <2 15 13 46 1 9 6 2>
 <2 15 13 39 1 9 9 3>
 <2 15 13 34 1 9 12 4>
 <2 15 13 29 1 9 17 5>
 <3 1 2 52 0 16 4 1>
 <3 1 2 40 0 16 6 2>
 <3 1 2 33 0 16 9 3>
 <3 1 2 29 0 16 12 4>
 <3 1 2 24 0 16 17 5>
 <3 2 3 30 0 2 4 1>
 <3 2 3 23 0 2 6 2>
 <3 2 3 19 0 2 9 3>
 <3 2 3 17 0 2 12 4>
 <3 2 3 14 0 2 17 5>
 <3 3 1 25 0 3 4 1>
 <3 3 1 19 0 3 6 2>
 <3 3 1 16 0 3 9 3>
 <3 3 1 14 0 3 12 4>
 <3 3 1 11 0 3 17 5>
 <3 4 7 17 0 1 5 1>
 <3 4 7 13 0 1 8 2>
 <3 4 7 10 0 1 12 3>
 <3 4 7 9 0 1 15 4>
 <3 4 7 8 0 1 22 5>
 <3 5 4 46 0 7 5 1>
 <3 5 4 35 0 7 8 2>
 <3 5 4 29 0 7 12 3>
 <3 5 4 26 0 7 15 4>
 <3 5 4 21 0 7 22 5>
 <3 6 5 86 0 4 3 1>
 <3 6 5 66 0 4 5 2>
 <3 6 5 55 0 4 7 3>
 <3 6 5 49 0 4 9 4>
 <3 6 5 40 0 4 13 5>
 <3 7 6 3 0 5 5 1>
 <3 7 6 2 0 5 8 2>
 <3 7 6 1 0 5 12 3>
 <3 7 6 1 0 5 15 4>
 <3 7 6 1 0 5 22 5>
 <3 8 15 70 0 6 4 1>
 <3 8 15 53 0 6 6 2>
 <3 8 15 45 0 6 9 3>
 <3 8 15 40 0 6 12 4>
 <3 8 15 33 0 6 17 5>
 <3 9 12 34 0 15 3 1>
 <3 9 12 26 0 15 5 2>
 <3 9 12 21 0 15 7 3>
 <3 9 12 19 0 15 9 4>
 <3 9 12 16 0 15 13 5>
 <3 10 10 23 0 12 5 1>
 <3 10 10 17 0 12 8 2>
 <3 10 10 14 0 12 12 3>
 <3 10 10 13 0 12 15 4>
 <3 10 10 10 0 12 22 5>
 <3 11 11 68 0 10 5 1>
 <3 11 11 52 0 10 8 2>
 <3 11 11 43 0 10 12 3>
 <3 11 11 38 0 10 15 4>
 <3 11 11 32 0 10 22 5>
 <3 12 14 76 0 11 3 1>
 <3 12 14 58 0 11 5 2>
 <3 12 14 49 0 11 7 3>
 <3 12 14 43 0 11 9 4>
 <3 12 14 36 0 11 13 5>
 <3 13 9 53 0 14 5 1>
 <3 13 9 40 0 14 8 2>
 <3 13 9 34 0 14 12 3>
 <3 13 9 30 0 14 15 4>
 <3 13 9 25 0 14 22 5>
 <3 14 13 71 0 9 4 1>
 <3 14 13 54 0 9 6 2>
 <3 14 13 45 0 9 9 3>
 <3 14 13 40 0 9 12 4>
 <3 14 13 33 0 9 17 5>
 <3 15 8 9 1 13 4 1>
 <3 15 8 6 1 13 6 2>
 <3 15 8 5 1 13 9 3>
 <3 15 8 5 1 13 12 4>
 <3 15 8 4 1 13 17 5>
 <4 1 3 50 0 16 5 1>
 <4 1 3 38 0 16 8 2>
 <4 1 3 32 0 16 12 3>
 <4 1 3 28 0 16 15 4>
 <4 1 3 23 0 16 22 5>
 <4 2 5 20 0 3 4 1>
 <4 2 5 15 0 3 6 2>
 <4 2 5 12 0 3 9 3>
 <4 2 5 11 0 3 12 4>
 <4 2 5 9 0 3 17 5>
 <4 3 4 24 0 5 4 1>
 <4 3 4 18 0 5 6 2>
 <4 3 4 15 0 5 9 3>
 <4 3 4 13 0 5 12 4>
 <4 3 4 11 0 5 17 5>
 <4 4 1 53 0 4 4 1>
 <4 4 1 40 0 4 6 2>
 <4 4 1 34 0 4 9 3>
 <4 4 1 30 0 4 12 4>
 <4 4 1 25 0 4 17 5>
 <4 5 2 97 0 1 3 1>
 <4 5 2 74 0 1 5 2>
 <4 5 2 62 0 1 7 3>
 <4 5 2 55 0 1 9 4>
 <4 5 2 46 0 1 13 5>
 <4 6 6 79 0 2 5 1>
 <4 6 6 60 0 2 8 2>
 <4 6 6 50 0 2 12 3>
 <4 6 6 45 0 2 15 4>
 <4 6 6 37 0 2 22 5>
 <4 7 7 92 0 6 4 1>
 <4 7 7 70 0 6 6 2>
 <4 7 7 59 0 6 9 3>
 <4 7 7 52 0 6 12 4>
 <4 7 7 43 0 6 17 5>
 <4 8 15 3 0 7 5 1>
 <4 8 15 2 0 7 8 2>
 <4 8 15 1 0 7 12 3>
 <4 8 15 1 0 7 15 4>
 <4 8 15 1 0 7 22 5>
 <4 9 13 52 0 15 4 1>
 <4 9 13 40 0 15 6 2>
 <4 9 13 33 0 15 9 3>
 <4 9 13 29 0 15 12 4>
 <4 9 13 24 0 15 17 5>
 <4 10 11 75 0 13 5 1>
 <4 10 11 57 0 13 8 2>
 <4 10 11 48 0 13 12 3>
 <4 10 11 42 0 13 15 4>
 <4 10 11 35 0 13 22 5>
 <4 11 10 74 0 11 5 1>
 <4 11 10 56 0 11 8 2>
 <4 11 10 47 0 11 12 3>
 <4 11 10 42 0 11 15 4>
 <4 11 10 35 0 11 22 5>
 <4 12 9 59 0 10 5 1>
 <4 12 9 45 0 10 8 2>
 <4 12 9 38 0 10 12 3>
 <4 12 9 33 0 10 15 4>
 <4 12 9 28 0 10 22 5>
 <4 13 8 75 0 9 5 1>
 <4 13 8 57 0 9 8 2>
 <4 13 8 48 0 9 12 3>
 <4 13 8 42 0 9 15 4>
 <4 13 8 35 0 9 22 5>
 <4 14 14 84 0 8 3 1>
 <4 14 14 64 0 8 5 2>
 <4 14 14 54 0 8 7 3>
 <4 14 14 48 0 8 9 4>
 <4 14 14 40 0 8 13 5>
 <4 15 12 99 1 14 5 1>
 <4 15 12 76 1 14 8 2>
 <4 15 12 63 1 14 12 3>
 <4 15 12 56 1 14 15 4>
 <4 15 12 47 1 14 22 5>
 <5 1 3 15 0 16 4 1>
 <5 1 3 11 0 16 6 2>
 <5 1 3 9 0 16 9 3>
 <5 1 3 8 0 16 12 4>
 <5 1 3 7 0 16 17 5>
 <5 2 1 61 0 3 3 1>
 <5 2 1 46 0 3 5 2>
 <5 2 1 39 0 3 7 3>
 <5 2 1 34 0 3 9 4>
 <5 2 1 29 0 3 13 5>
 <5 3 4 47 0 1 5 1>
 <5 3 4 36 0 1 8 2>
 <5 3 4 30 0 1 12 3>
 <5 3 4 26 0 1 15 4>
 <5 3 4 22 0 1 22 5>
 <5 4 5 38 0 4 5 1>
 <5 4 5 29 0 4 8 2>
 <5 4 5 24 0 4 12 3>
 <5 4 5 21 0 4 15 4>
 <5 4 5 18 0 4 22 5>
 <5 5 7 49 0 5 5 1>
 <5 5 7 37 0 5 8 2>
 <5 5 7 31 0 5 12 3>
 <5 5 7 28 0 5 15 4>
 <5 5 7 23 0 5 22 5>
 <5 6 6 21 0 7 3 1>
 <5 6 6 16 0 7 5 2>
 <5 6 6 13 0 7 7 3>
 <5 6 6 12 0 7 9 4>
 <5 6 6 10 0 7 13 5>
 <5 7 2 6 0 6 5 1>
 <5 7 2 4 0 6 8 2>
 <5 7 2 3 0 6 12 3>
 <5 7 2 3 0 6 15 4>
 <5 7 2 2 0 6 22 5>
 <5 8 12 8 0 2 5 1>
 <5 8 12 6 0 2 8 2>
 <5 8 12 5 0 2 12 3>
 <5 8 12 4 0 2 15 4>
 <5 8 12 3 0 2 22 5>
 <5 9 9 71 0 12 3 1>
 <5 9 9 54 0 12 5 2>
 <5 9 9 45 0 12 7 3>
 <5 9 9 40 0 12 9 4>
 <5 9 9 33 0 12 13 5>
 <5 10 15 83 0 9 4 1>
 <5 10 15 63 0 9 6 2>
 <5 10 15 53 0 9 9 3>
 <5 10 15 47 0 9 12 4>
 <5 10 15 39 0 9 17 5>
 <5 11 14 24 0 15 5 1>
 <5 11 14 18 0 15 8 2>
 <5 11 14 15 0 15 12 3>
 <5 11 14 13 0 15 15 4>
 <5 11 14 11 0 15 22 5>
 <5 12 13 18 0 14 5 1>
 <5 12 13 13 0 14 8 2>
 <5 12 13 11 0 14 12 3>
 <5 12 13 10 0 14 15 4>
 <5 12 13 8 0 14 22 5>
 <5 13 10 33 0 13 5 1>
 <5 13 10 25 0 13 8 2>
 <5 13 10 21 0 13 12 3>
 <5 13 10 18 0 13 15 4>
 <5 13 10 15 0 13 22 5>
 <5 14 8 70 0 10 3 1>
 <5 14 8 53 0 10 5 2>
 <5 14 8 45 0 10 7 3>
 <5 14 8 40 0 10 9 4>
 <5 14 8 33 0 10 13 5>
 <5 15 11 100 1 8 3 1>
 <5 15 11 76 1 8 5 2>
 <5 15 11 64 1 8 7 3>
 <5 15 11 57 1 8 9 4>
 <5 15 11 47 1 8 13 5>
 <6 1 5 48 0 16 3 1>
 <6 1 5 36 0 16 5 2>
 <6 1 5 30 0 16 7 3>
 <6 1 5 27 0 16 9 4>
 <6 1 5 22 0 16 13 5>
 <6 2 6 50 0 5 3 1>
 <6 2 6 38 0 5 5 2>
 <6 2 6 32 0 5 7 3>
 <6 2 6 28 0 5 9 4>
 <6 2 6 23 0 5 13 5>
 <6 3 3 66 0 6 5 1>
 <6 3 3 50 0 6 8 2>
 <6 3 3 42 0 6 12 3>
 <6 3 3 37 0 6 15 4>
 <6 3 3 31 0 6 22 5>
 <6 4 1 92 0 3 4 1>
 <6 4 1 70 0 3 6 2>
 <6 4 1 59 0 3 9 3>
 <6 4 1 52 0 3 12 4>
 <6 4 1 43 0 3 17 5>
 <6 5 7 2 0 1 4 1>
 <6 5 7 1 0 1 6 2>
 <6 5 7 1 0 1 9 3>
 <6 5 7 1 0 1 12 4>
 <6 5 7 0 0 1 17 5>
 <6 6 4 58 0 7 5 1>
 <6 6 4 44 0 7 8 2>
 <6 6 4 37 0 7 12 3>
 <6 6 4 33 0 7 15 4>
 <6 6 4 27 0 7 22 5>
 <6 7 2 23 0 4 5 1>
 <6 7 2 17 0 4 8 2>
 <6 7 2 14 0 4 12 3>
 <6 7 2 13 0 4 15 4>
 <6 7 2 10 0 4 22 5>
 <6 8 10 84 0 2 3 1>
 <6 8 10 64 0 2 5 2>
 <6 8 10 54 0 2 7 3>
 <6 8 10 48 0 2 9 4>
 <6 8 10 40 0 2 13 5>
 <6 9 9 66 0 10 5 1>
 <6 9 9 50 0 10 8 2>
 <6 9 9 42 0 10 12 3>
 <6 9 9 37 0 10 15 4>
 <6 9 9 31 0 10 22 5>
 <6 10 11 12 0 9 5 1>
 <6 10 11 9 0 9 8 2>
 <6 10 11 7 0 9 12 3>
 <6 10 11 6 0 9 15 4>
 <6 10 11 5 0 9 22 5>
 <6 11 8 36 0 11 4 1>
 <6 11 8 27 0 11 6 2>
 <6 11 8 23 0 11 9 3>
 <6 11 8 20 0 11 12 4>
 <6 11 8 17 0 11 17 5>
 <6 12 15 4 0 8 3 1>
 <6 12 15 3 0 8 5 2>
 <6 12 15 2 0 8 7 3>
 <6 12 15 2 0 8 9 4>
 <6 12 15 1 0 8 13 5>
 <6 13 13 88 0 15 3 1>
 <6 13 13 67 0 15 5 2>
 <6 13 13 56 0 15 7 3>
 <6 13 13 50 0 15 9 4>
 <6 13 13 41 0 15 13 5>
 <6 14 14 64 0 13 3 1>
 <6 14 14 49 0 13 5 2>
 <6 14 14 41 0 13 7 3>
 <6 14 14 36 0 13 9 4>
 <6 14 14 30 0 13 13 5>
 <6 15 12 12 1 14 3 1>
 <6 15 12 9 1 14 5 2>
 <6 15 12 7 1 14 7 3>
 <6 15 12 6 1 14 9 4>
 <6 15 12 5 1 14 13 5>
 <7 1 4 29 0 16 3 1>
 <7 1 4 22 0 16 5 2>
 <7 1 4 18 0 16 7 3>
 <7 1 4 16 0 16 9 4>
 <7 1 4 13 0 16 13 5>
 <7 2 1 25 0 4 3 1>
 <7 2 1 19 0 4 5 2>
 <7 2 1 16 0 4 7 3>
 <7 2 1 14 0 4 9 4>
 <7 2 1 11 0 4 13 5>
 <7 3 7 44 0 1 3 1>
 <7 3 7 33 0 1 5 2>
 <7 3 7 28 0 1 7 3>
 <7 3 7 25 0 1 9 4>
 <7 3 7 20 0 1 13 5>
 <7 4 6 87 0 7 5 1>
 <7 4 6 66 0 7 8 2>
 <7 4 6 56 0 7 12 3>
 <7 4 6 49 0 7 15 4>
 <7 4 6 41 0 7 22 5>
 <7 5 3 42 0 6 5 1>
 <7 5 3 32 0 6 8 2>
 <7 5 3 27 0 6 12 3>
 <7 5 3 24 0 6 15 4>
 <7 5 3 20 0 6 22 5>
 <7 6 2 44 0 3 4 1>
 <7 6 2 33 0 3 6 2>
 <7 6 2 28 0 3 9 3>
 <7 6 2 25 0 3 12 4>
 <7 6 2 20 0 3 17 5>
 <7 7 5 86 0 2 3 1>
 <7 7 5 66 0 2 5 2>
 <7 7 5 55 0 2 7 3>
 <7 7 5 49 0 2 9 4>
 <7 7 5 40 0 2 13 5>
 <7 8 9 28 0 5 3 1>
 <7 8 9 21 0 5 5 2>
 <7 8 9 18 0 5 7 3>
 <7 8 9 16 0 5 9 4>
 <7 8 9 13 0 5 13 5>
 <7 9 11 86 0 9 3 1>
 <7 9 11 66 0 9 5 2>
 <7 9 11 55 0 9 7 3>
 <7 9 11 49 0 9 9 4>
 <7 9 11 40 0 9 13 5>
 <7 10 10 74 0 11 3 1>
 <7 10 10 56 0 11 5 2>
 <7 10 10 47 0 11 7 3>
 <7 10 10 42 0 11 9 4>
 <7 10 10 35 0 11 13 5>
 <7 11 15 77 0 10 3 1>
 <7 11 15 59 0 10 5 2>
 <7 11 15 49 0 10 7 3>
 <7 11 15 44 0 10 9 4>
 <7 11 15 36 0 10 13 5>
 <7 12 14 59 0 15 4 1>
 <7 12 14 45 0 15 6 2>
 <7 12 14 38 0 15 9 3>
 <7 12 14 33 0 15 12 4>
 <7 12 14 28 0 15 17 5>
 <7 13 13 94 0 14 4 1>
 <7 13 13 72 0 14 6 2>
 <7 13 13 60 0 14 9 3>
 <7 13 13 53 0 14 12 4>
 <7 13 13 44 0 14 17 5>
 <7 14 8 58 0 13 3 1>
 <7 14 8 44 0 13 5 2>
 <7 14 8 37 0 13 7 3>
 <7 14 8 33 0 13 9 4>
 <7 14 8 27 0 13 13 5>
 <7 15 12 16 1 8 4 1>
 <7 15 12 12 1 8 6 2>
 <7 15 12 10 1 8 9 3>
 <7 15 12 9 1 8 12 4>
 <7 15 12 7 1 8 17 5>
 <8 1 5 31 0 16 3 1>
 <8 1 5 23 0 16 5 2>
 <8 1 5 20 0 16 7 3>
 <8 1 5 17 0 16 9 4>
 <8 1 5 14 0 16 13 5>
 <8 2 4 58 0 5 4 1>
 <8 2 4 44 0 5 6 2>
 <8 2 4 37 0 5 9 3>
 <8 2 4 33 0 5 12 4>
 <8 2 4 27 0 5 17 5>
 <8 3 1 94 0 4 5 1>
 <8 3 1 72 0 4 8 2>
 <8 3 1 60 0 4 12 3>
 <8 3 1 53 0 4 15 4>
 <8 3 1 44 0 4 22 5>
 <8 4 6 69 0 1 3 1>
 <8 4 6 53 0 1 5 2>
 <8 4 6 44 0 1 7 3>
 <8 4 6 39 0 1 9 4>
 <8 4 6 32 0 1 13 5>
 <8 5 3 44 0 6 3 1>
 <8 5 3 33 0 6 5 2>
 <8 5 3 28 0 6 7 3>
 <8 5 3 25 0 6 9 4>
 <8 5 3 20 0 6 13 5>
 <8 6 2 93 0 3 5 1>
 <8 6 2 71 0 3 8 2>
 <8 6 2 60 0 3 12 3>
 <8 6 2 53 0 3 15 4>
 <8 6 2 44 0 3 22 5>
 <8 7 7 92 0 2 3 1>
 <8 7 7 70 0 2 5 2>
 <8 7 7 59 0 2 7 3>
 <8 7 7 52 0 2 9 4>
 <8 7 7 43 0 2 13 5>
 <8 8 10 80 0 7 3 1>
 <8 8 10 61 0 7 5 2>
 <8 8 10 51 0 7 7 3>
 <8 8 10 45 0 7 9 4>
 <8 8 10 38 0 7 13 5>
 <8 9 9 63 0 10 3 1>
 <8 9 9 48 0 10 5 2>
 <8 9 9 40 0 10 7 3>
 <8 9 9 36 0 10 9 4>
 <8 9 9 30 0 10 13 5>
 <8 10 13 47 0 9 4 1>
 <8 10 13 36 0 9 6 2>
 <8 10 13 30 0 9 9 3>
 <8 10 13 26 0 9 12 4>
 <8 10 13 22 0 9 17 5>
 <8 11 14 3 0 13 3 1>
 <8 11 14 2 0 13 5 2>
 <8 11 14 1 0 13 7 3>
 <8 11 14 1 0 13 9 4>
 <8 11 14 1 0 13 13 5>
 <8 12 8 79 0 14 3 1>
 <8 12 8 60 0 14 5 2>
 <8 12 8 50 0 14 7 3>
 <8 12 8 45 0 14 9 4>
 <8 12 8 37 0 14 13 5>
 <8 13 12 39 0 8 3 1>
 <8 13 12 30 0 8 5 2>
 <8 13 12 25 0 8 7 3>
 <8 13 12 22 0 8 9 4>
 <8 13 12 18 0 8 13 5>
 <8 14 15 80 0 12 5 1>
 <8 14 15 61 0 12 8 2>
 <8 14 15 51 0 12 12 3>
 <8 14 15 45 0 12 15 4>
 <8 14 15 38 0 12 22 5>
 <8 15 11 75 1 15 4 1>
 <8 15 11 57 1 15 6 2>
 <8 15 11 48 1 15 9 3>
 <8 15 11 42 1 15 12 4>
 <8 15 11 35 1 15 17 5>
 <9 1 2 69 0 16 3 1>
 <9 1 2 53 0 16 5 2>
 <9 1 2 44 0 16 7 3>
 <9 1 2 39 0 16 9 4>
 <9 1 2 32 0 16 13 5>
 <9 2 3 27 0 2 4 1>
 <9 2 3 20 0 2 6 2>
 <9 2 3 17 0 2 9 3>
 <9 2 3 15 0 2 12 4>
 <9 2 3 12 0 2 17 5>
 <9 3 1 76 0 3 5 1>
 <9 3 1 58 0 3 8 2>
 <9 3 1 49 0 3 12 3>
 <9 3 1 43 0 3 15 4>
 <9 3 1 36 0 3 22 5>
 <9 4 6 19 0 1 5 1>
 <9 4 6 14 0 1 8 2>
 <9 4 6 12 0 1 12 3>
 <9 4 6 10 0 1 15 4>
 <9 4 6 9 0 1 22 5>
 <9 5 7 86 0 6 4 1>
 <9 5 7 66 0 6 6 2>
 <9 5 7 55 0 6 9 3>
 <9 5 7 49 0 6 12 4>
 <9 5 7 40 0 6 17 5>
 <9 6 4 16 0 7 5 1>
 <9 6 4 12 0 7 8 2>
 <9 6 4 10 0 7 12 3>
 <9 6 4 9 0 7 15 4>
 <9 6 4 7 0 7 22 5>
 <9 7 5 31 0 4 5 1>
 <9 7 5 23 0 4 8 2>
 <9 7 5 20 0 4 12 3>
 <9 7 5 17 0 4 15 4>
 <9 7 5 14 0 4 22 5>
 <9 8 13 33 0 5 4 1>
 <9 8 13 25 0 5 6 2>
 <9 8 13 21 0 5 9 3>
 <9 8 13 18 0 5 12 4>
 <9 8 13 15 0 5 17 5>
 <9 9 10 69 0 13 4 1>
 <9 9 10 53 0 13 6 2>
 <9 9 10 44 0 13 9 3>
 <9 9 10 39 0 13 12 4>
 <9 9 10 32 0 13 17 5>
 <9 10 14 19 0 10 3 1>
 <9 10 14 14 0 10 5 2>
 <9 10 14 12 0 10 7 3>
 <9 10 14 10 0 10 9 4>
 <9 10 14 9 0 10 13 5>
 <9 11 11 43 0 14 5 1>
 <9 11 11 33 0 14 8 2>
 <9 11 11 27 0 14 12 3>
 <9 11 11 24 0 14 15 4>
 <9 11 11 20 0 14 22 5>
 <9 12 15 9 0 11 5 1>
 <9 12 15 6 0 11 8 2>
 <9 12 15 5 0 11 12 3>
 <9 12 15 5 0 11 15 4>
 <9 12 15 4 0 11 22 5>
 <9 13 12 37 0 15 4 1>
 <9 13 12 28 0 15 6 2>
 <9 13 12 23 0 15 9 3>
 <9 13 12 21 0 15 12 4>
 <9 13 12 17 0 15 17 5>
 <9 14 8 35 0 12 5 1>
 <9 14 8 26 0 12 8 2>
 <9 14 8 22 0 12 12 3>
 <9 14 8 20 0 12 15 4>
 <9 14 8 16 0 12 22 5>
 <9 15 9 24 1 8 5 1>
 <9 15 9 18 1 8 8 2>
 <9 15 9 15 1 8 12 3>
 <9 15 9 13 1 8 15 4>
 <9 15 9 11 1 8 22 5>
 <10 1 3 75 0 16 4 1>
 <10 1 3 57 0 16 6 2>
 <10 1 3 48 0 16 9 3>
 <10 1 3 42 0 16 12 4>
 <10 1 3 35 0 16 17 5>
 <10 2 4 78 0 3 5 1>
 <10 2 4 60 0 3 8 2>
 <10 2 4 50 0 3 12 3>
 <10 2 4 44 0 3 15 4>
 <10 2 4 37 0 3 22 5>
 <10 3 7 41 0 4 3 1>
 <10 3 7 31 0 4 5 2>
 <10 3 7 26 0 4 7 3>
 <10 3 7 23 0 4 9 4>
 <10 3 7 19 0 4 13 5>
 <10 4 5 60 0 7 4 1>
 <10 4 5 46 0 7 6 2>
 <10 4 5 38 0 7 9 3>
 <10 4 5 34 0 7 12 4>
 <10 4 5 28 0 7 17 5>
 <10 5 6 59 0 5 4 1>
 <10 5 6 45 0 5 6 2>
 <10 5 6 38 0 5 9 3>
 <10 5 6 33 0 5 12 4>
 <10 5 6 28 0 5 17 5>
 <10 6 1 42 0 6 5 1>
 <10 6 1 32 0 6 8 2>
 <10 6 1 27 0 6 12 3>
 <10 6 1 24 0 6 15 4>
 <10 6 1 20 0 6 22 5>
 <10 7 2 60 0 1 5 1>
 <10 7 2 46 0 1 8 2>
 <10 7 2 38 0 1 12 3>
 <10 7 2 34 0 1 15 4>
 <10 7 2 28 0 1 22 5>
 <10 8 13 18 0 2 3 1>
 <10 8 13 13 0 2 5 2>
 <10 8 13 11 0 2 7 3>
 <10 8 13 10 0 2 9 4>
 <10 8 13 8 0 2 13 5>
 <10 9 9 31 0 13 5 1>
 <10 9 9 23 0 13 8 2>
 <10 9 9 20 0 13 12 3>
 <10 9 9 17 0 13 15 4>
 <10 9 9 14 0 13 22 5>
 <10 10 11 15 0 9 3 1>
 <10 10 11 11 0 9 5 2>
 <10 10 11 9 0 9 7 3>
 <10 10 11 8 0 9 9 4>
 <10 10 11 7 0 9 13 5>
 <10 11 8 54 0 11 4 1>
 <10 11 8 41 0 11 6 2>
 <10 11 8 34 0 11 9 3>
 <10 11 8 30 0 11 12 4>
 <10 11 8 25 0 11 17 5>
 <10 12 15 60 0 8 3 1>
 <10 12 15 46 0 8 5 2>
 <10 12 15 38 0 8 7 3>
 <10 12 15 34 0 8 9 4>
 <10 12 15 28 0 8 13 5>
 <10 13 10 20 0 15 4 1>
 <10 13 10 15 0 15 6 2>
 <10 13 10 12 0 15 9 3>
 <10 13 10 11 0 15 12 4>
 <10 13 10 9 0 15 17 5>
 <10 14 12 61 0 10 4 1>
 <10 14 12 46 0 10 6 2>
 <10 14 12 39 0 10 9 3>
 <10 14 12 34 0 10 12 4>
 <10 14 12 29 0 10 17 5>
 <10 15 14 69 1 12 5 1>
 <10 15 14 53 1 12 8 2>
 <10 15 14 44 1 12 12 3>
 <10 15 14 39 1 12 15 4>
 <10 15 14 32 1 12 22 5>
 <11 1 5 89 0 16 4 1>
 <11 1 5 68 0 16 6 2>
 <11 1 5 57 0 16 9 3>
 <11 1 5 50 0 16 12 4>
 <11 1 5 42 0 16 17 5>
 <11 2 7 20 0 5 5 1>
 <11 2 7 15 0 5 8 2>
 <11 2 7 12 0 5 12 3>
 <11 2 7 11 0 5 15 4>
 <11 2 7 9 0 5 22 5>
 <11 3 2 27 0 7 5 1>
 <11 3 2 20 0 7 8 2>
 <11 3 2 17 0 7 12 3>
 <11 3 2 15 0 7 15 4>
 <11 3 2 12 0 7 22 5>
 <11 4 6 78 0 2 4 1>
 <11 4 6 60 0 2 6 2>
 <11 4 6 50 0 2 9 3>
 <11 4 6 44 0 2 12 4>
 <11 4 6 37 0 2 17 5>
 <11 5 4 2 0 6 3 1>
 <11 5 4 1 0 6 5 2>
 <11 5 4 1 0 6 7 3>
 <11 5 4 1 0 6 9 4>
 <11 5 4 0 0 6 13 5>
 <11 6 3 21 0 4 4 1>
 <11 6 3 16 0 4 6 2>
 <11 6 3 13 0 4 9 3>
 <11 6 3 12 0 4 12 4>
 <11 6 3 10 0 4 17 5>
 <11 7 1 55 0 3 4 1>
 <11 7 1 42 0 3 6 2>
 <11 7 1 35 0 3 9 3>
 <11 7 1 31 0 3 12 4>
 <11 7 1 26 0 3 17 5>
 <11 8 14 79 0 1 5 1>
 <11 8 14 60 0 1 8 2>
 <11 8 14 50 0 1 12 3>
 <11 8 14 45 0 1 15 4>
 <11 8 14 37 0 1 22 5>
 <11 9 12 77 0 14 3 1>
 <11 9 12 59 0 14 5 2>
 <11 9 12 49 0 14 7 3>
 <11 9 12 44 0 14 9 4>
 <11 9 12 36 0 14 13 5>
 <11 10 11 99 0 12 5 1>
 <11 10 11 76 0 12 8 2>
 <11 10 11 63 0 12 12 3>
 <11 10 11 56 0 12 15 4>
 <11 10 11 47 0 12 22 5>
 <11 11 10 70 0 11 3 1>
 <11 11 10 53 0 11 5 2>
 <11 11 10 45 0 11 7 3>
 <11 11 10 40 0 11 9 4>
 <11 11 10 33 0 11 13 5>
 <11 12 13 30 0 10 5 1>
 <11 12 13 23 0 10 8 2>
 <11 12 13 19 0 10 12 3>
 <11 12 13 17 0 10 15 4>
 <11 12 13 14 0 10 22 5>
 <11 13 8 97 0 13 5 1>
 <11 13 8 74 0 13 8 2>
 <11 13 8 62 0 13 12 3>
 <11 13 8 55 0 13 15 4>
 <11 13 8 46 0 13 22 5>
 <11 14 9 41 0 8 4 1>
 <11 14 9 31 0 8 6 2>
 <11 14 9 26 0 8 9 3>
 <11 14 9 23 0 8 12 4>
 <11 14 9 19 0 8 17 5>
 <11 15 15 98 1 9 5 1>
 <11 15 15 75 1 9 8 2>
 <11 15 15 63 1 9 12 3>
 <11 15 15 56 1 9 15 4>
 <11 15 15 46 1 9 22 5>
 <12 1 7 1 0 16 3 1>
 <12 1 7 0 0 16 5 2>
 <12 1 7 0 0 16 7 3>
 <12 1 7 0 0 16 9 4>
 <12 1 7 0 0 16 13 5>
 <12 2 3 10 0 7 5 1>
 <12 2 3 7 0 7 8 2>
 <12 2 3 6 0 7 12 3>
 <12 2 3 5 0 7 15 4>
 <12 2 3 4 0 7 22 5>
 <12 3 5 84 0 3 5 1>
 <12 3 5 64 0 3 8 2>
 <12 3 5 54 0 3 12 3>
 <12 3 5 48 0 3 15 4>
 <12 3 5 40 0 3 22 5>
 <12 4 6 72 0 5 4 1>
 <12 4 6 55 0 5 6 2>
 <12 4 6 46 0 5 9 3>
 <12 4 6 41 0 5 12 4>
 <12 4 6 34 0 5 17 5>
 <12 5 1 14 0 6 4 1>
 <12 5 1 10 0 6 6 2>
 <12 5 1 9 0 6 9 3>
 <12 5 1 8 0 6 12 4>
 <12 5 1 6 0 6 17 5>
 <12 6 2 9 0 1 3 1>
 <12 6 2 6 0 1 5 2>
 <12 6 2 5 0 1 7 3>
 <12 6 2 5 0 1 9 4>
 <12 6 2 4 0 1 13 5>
 <12 7 4 51 0 2 5 1>
 <12 7 4 39 0 2 8 2>
 <12 7 4 32 0 2 12 3>
 <12 7 4 29 0 2 15 4>
 <12 7 4 24 0 2 22 5>
 <12 8 8 22 0 4 5 1>
 <12 8 8 16 0 4 8 2>
 <12 8 8 14 0 4 12 3>
 <12 8 8 12 0 4 15 4>
 <12 8 8 10 0 4 22 5>
 <12 9 15 65 0 8 5 1>
 <12 9 15 50 0 8 8 2>
 <12 9 15 41 0 8 12 3>
 <12 9 15 37 0 8 15 4>
 <12 9 15 30 0 8 22 5>
 <12 10 11 100 0 15 4 1>
 <12 10 11 76 0 15 6 2>
 <12 10 11 64 0 15 9 3>
 <12 10 11 57 0 15 12 4>
 <12 10 11 47 0 15 17 5>
 <12 11 14 65 0 11 5 1>
 <12 11 14 50 0 11 8 2>
 <12 11 14 41 0 11 12 3>
 <12 11 14 37 0 11 15 4>
 <12 11 14 30 0 11 22 5>
 <12 12 12 43 0 14 4 1>
 <12 12 12 33 0 14 6 2>
 <12 12 12 27 0 14 9 3>
 <12 12 12 24 0 14 12 4>
 <12 12 12 20 0 14 17 5>
 <12 13 9 10 0 12 4 1>
 <12 13 9 7 0 12 6 2>
 <12 13 9 6 0 12 9 3>
 <12 13 9 5 0 12 12 4>
 <12 13 9 4 0 12 17 5>
 <12 14 13 14 0 9 3 1>
 <12 14 13 10 0 9 5 2>
 <12 14 13 9 0 9 7 3>
 <12 14 13 8 0 9 9 4>
 <12 14 13 6 0 9 13 5>
 <12 15 10 19 1 13 3 1>
 <12 15 10 14 1 13 5 2>
 <12 15 10 12 1 13 7 3>
 <12 15 10 10 1 13 9 4>
 <12 15 10 9 1 13 13 5>
 <13 1 6 50 0 16 3 1>
 <13 1 6 38 0 16 5 2>
 <13 1 6 32 0 16 7 3>
 <13 1 6 28 0 16 9 4>
 <13 1 6 23 0 16 13 5>
 <13 2 3 13 0 6 5 1>
 <13 2 3 10 0 6 8 2>
 <13 2 3 8 0 6 12 3>
 <13 2 3 7 0 6 15 4>
 <13 2 3 6 0 6 22 5>
 <13 3 4 49 0 3 4 1>
 <13 3 4 37 0 3 6 2>
 <13 3 4 31 0 3 9 3>
 <13 3 4 28 0 3 12 4>
 <13 3 4 23 0 3 17 5>
 <13 4 7 75 0 4 5 1>
 <13 4 7 57 0 4 8 2>
 <13 4 7 48 0 4 12 3>
 <13 4 7 42 0 4 15 4>
 <13 4 7 35 0 4 22 5>
 <13 5 2 42 0 7 5 1>
 <13 5 2 32 0 7 8 2>
 <13 5 2 27 0 7 12 3>
 <13 5 2 24 0 7 15 4>
 <13 5 2 20 0 7 22 5>
 <13 6 1 81 0 2 3 1>
 <13 6 1 62 0 2 5 2>
 <13 6 1 52 0 2 7 3>
 <13 6 1 46 0 2 9 4>
 <13 6 1 38 0 2 13 5>
 <13 7 5 89 0 1 3 1>
 <13 7 5 68 0 1 5 2>
 <13 7 5 57 0 1 7 3>
 <13 7 5 50 0 1 9 4>
 <13 7 5 42 0 1 13 5>
 <13 8 10 100 0 5 4 1>
 <13 8 10 76 0 5 6 2>
 <13 8 10 64 0 5 9 3>
 <13 8 10 57 0 5 12 4>
 <13 8 10 47 0 5 17 5>
 <13 9 15 54 0 10 3 1>
 <13 9 15 41 0 10 5 2>
 <13 9 15 34 0 10 7 3>
 <13 9 15 30 0 10 9 4>
 <13 9 15 25 0 10 13 5>
 <13 10 14 37 0 15 5 1>
 <13 10 14 28 0 15 8 2>
 <13 10 14 23 0 15 12 3>
 <13 10 14 21 0 15 15 4>
 <13 10 14 17 0 15 22 5>
 <13 11 11 7 0 14 4 1>
 <13 11 11 5 0 14 6 2>
 <13 11 11 4 0 14 9 3>
 <13 11 11 4 0 14 12 4>
 <13 11 11 3 0 14 17 5>
 <13 12 12 38 0 11 3 1>
 <13 12 12 29 0 11 5 2>
 <13 12 12 24 0 11 7 3>
 <13 12 12 21 0 11 9 4>
 <13 12 12 18 0 11 13 5>
 <13 13 9 25 0 12 4 1>
 <13 13 9 19 0 12 6 2>
 <13 13 9 16 0 12 9 3>
 <13 13 9 14 0 12 12 4>
 <13 13 9 11 0 12 17 5>
 <13 14 13 78 0 9 3 1>
 <13 14 13 60 0 9 5 2>
 <13 14 13 50 0 9 7 3>
 <13 14 13 44 0 9 9 4>
 <13 14 13 37 0 9 13 5>
 <13 15 8 79 1 13 3 1>
 <13 15 8 60 1 13 5 2>
 <13 15 8 50 1 13 7 3>
 <13 15 8 45 1 13 9 4>
 <13 15 8 37 1 13 13 5>
 <14 1 3 44 0 16 5 1>
 <14 1 3 33 0 16 8 2>
 <14 1 3 28 0 16 12 3>
 <14 1 3 25 0 16 15 4>
 <14 1 3 20 0 16 22 5>
 <14 2 4 77 0 3 4 1>
 <14 2 4 59 0 3 6 2>
 <14 2 4 49 0 3 9 3>
 <14 2 4 44 0 3 12 4>
 <14 2 4 36 0 3 17 5>
 <14 3 6 26 0 4 4 1>
 <14 3 6 20 0 4 6 2>
 <14 3 6 16 0 4 9 3>
 <14 3 6 14 0 4 12 4>
 <14 3 6 12 0 4 17 5>
 <14 4 2 42 0 6 5 1>
 <14 4 2 32 0 6 8 2>
 <14 4 2 27 0 6 12 3>
 <14 4 2 24 0 6 15 4>
 <14 4 2 20 0 6 22 5>
 <14 5 5 9 0 2 4 1>
 <14 5 5 6 0 2 6 2>
 <14 5 5 5 0 2 9 3>
 <14 5 5 5 0 2 12 4>
 <14 5 5 4 0 2 17 5>
 <14 6 7 73 0 5 4 1>
 <14 6 7 56 0 5 6 2>
 <14 6 7 47 0 5 9 3>
 <14 6 7 41 0 5 12 4>
 <14 6 7 34 0 5 17 5>
 <14 7 1 60 0 7 4 1>
 <14 7 1 46 0 7 6 2>
 <14 7 1 38 0 7 9 3>
 <14 7 1 34 0 7 12 4>
 <14 7 1 28 0 7 17 5>
 <14 8 10 61 0 1 3 1>
 <14 8 10 46 0 1 5 2>
 <14 8 10 39 0 1 7 3>
 <14 8 10 34 0 1 9 4>
 <14 8 10 29 0 1 13 5>
 <14 9 11 85 0 10 4 1>
 <14 9 11 65 0 10 6 2>
 <14 9 11 54 0 10 9 3>
 <14 9 11 48 0 10 12 4>
 <14 9 11 40 0 10 17 5>
 <14 10 13 14 0 11 5 1>
 <14 10 13 10 0 11 8 2>
 <14 10 13 9 0 11 12 3>
 <14 10 13 8 0 11 15 4>
 <14 10 13 6 0 11 22 5>
 <14 11 12 92 0 13 3 1>
 <14 11 12 70 0 13 5 2>
 <14 11 12 59 0 13 7 3>
 <14 11 12 52 0 13 9 4>
 <14 11 12 43 0 13 13 5>
 <14 12 8 100 0 12 5 1>
 <14 12 8 76 0 12 8 2>
 <14 12 8 64 0 12 12 3>
 <14 12 8 57 0 12 15 4>
 <14 12 8 47 0 12 22 5>
 <14 13 15 49 0 8 3 1>
 <14 13 15 37 0 8 5 2>
 <14 13 15 31 0 8 7 3>
 <14 13 15 28 0 8 9 4>
 <14 13 15 23 0 8 13 5>
 <14 14 9 46 0 15 5 1>
 <14 14 9 35 0 15 8 2>
 <14 14 9 29 0 15 12 3>
 <14 14 9 26 0 15 15 4>
 <14 14 9 21 0 15 22 5>
 <14 15 14 12 1 9 3 1>
 <14 15 14 9 1 9 5 2>
 <14 15 14 7 1 9 7 3>
 <14 15 14 6 1 9 9 4>
 <14 15 14 5 1 9 13 5>
 <15 1 3 72 0 16 3 1>
 <15 1 3 55 0 16 5 2>
 <15 1 3 46 0 16 7 3>
 <15 1 3 41 0 16 9 4>
 <15 1 3 34 0 16 13 5>
 <15 2 1 53 0 3 4 1>
 <15 2 1 40 0 3 6 2>
 <15 2 1 34 0 3 9 3>
 <15 2 1 30 0 3 12 4>
 <15 2 1 25 0 3 17 5>
 <15 3 2 43 0 1 4 1>
 <15 3 2 33 0 1 6 2>
 <15 3 2 27 0 1 9 3>
 <15 3 2 24 0 1 12 4>
 <15 3 2 20 0 1 17 5>
 <15 4 6 65 0 2 3 1>
 <15 4 6 50 0 2 5 2>
 <15 4 6 41 0 2 7 3>
 <15 4 6 37 0 2 9 4>
 <15 4 6 30 0 2 13 5>
 <15 5 7 59 0 6 3 1>
 <15 5 7 45 0 6 5 2>
 <15 5 7 38 0 6 7 3>
 <15 5 7 33 0 6 9 4>
 <15 5 7 28 0 6 13 5>
 <15 6 5 87 0 7 5 1>
 <15 6 5 66 0 7 8 2>
 <15 6 5 56 0 7 12 3>
 <15 6 5 49 0 7 15 4>
 <15 6 5 41 0 7 22 5>
 <15 7 4 13 0 5 5 1>
 <15 7 4 10 0 5 8 2>
 <15 7 4 8 0 5 12 3>
 <15 7 4 7 0 5 15 4>
 <15 7 4 6 0 5 22 5>
 <15 8 9 71 0 4 4 1>
 <15 8 9 54 0 4 6 2>
 <15 8 9 45 0 4 9 3>
 <15 8 9 40 0 4 12 4>
 <15 8 9 33 0 4 17 5>
 <15 9 13 25 0 9 3 1>
 <15 9 13 19 0 9 5 2>
 <15 9 13 16 0 9 7 3>
 <15 9 13 14 0 9 9 4>
 <15 9 13 11 0 9 13 5>
 <15 10 10 71 0 13 4 1>
 <15 10 10 54 0 13 6 2>
 <15 10 10 45 0 13 9 3>
 <15 10 10 40 0 13 12 4>
 <15 10 10 33 0 13 17 5>
 <15 11 11 89 0 10 4 1>
 <15 11 11 68 0 10 6 2>
 <15 11 11 57 0 10 9 3>
 <15 11 11 50 0 10 12 4>
 <15 11 11 42 0 10 17 5>
 <15 12 12 2 0 11 5 1>
 <15 12 12 1 0 11 8 2>
 <15 12 12 1 0 11 12 3>
 <15 12 12 1 0 11 15 4>
 <15 12 12 0 0 11 22 5>
 <15 13 8 76 0 12 4 1>
 <15 13 8 58 0 12 6 2>
 <15 13 8 49 0 12 9 3>
 <15 13 8 43 0 12 12 4>
 <15 13 8 36 0 12 17 5>
 <15 14 15 21 0 8 3 1>
 <15 14 15 16 0 8 5 2>
 <15 14 15 13 0 8 7 3>
 <15 14 15 12 0 8 9 4>
 <15 14 15 10 0 8 13 5>
 <15 15 14 12 1 15 3 1>
 <15 15 14 9 1 15 5 2>
 <15 15 14 7 1 15 7 3>
 <15 15 14 6 1 15 9 4>
 <15 15 14 5 1 15 13 5>
 <16 1 3 60 0 16 5 1>
 <16 1 3 46 0 16 8 2>
 <16 1 3 38 0 16 12 3>
 <16 1 3 34 0 16 15 4>
 <16 1 3 28 0 16 22 5>
 <16 2 7 28 0 3 4 1>
 <16 2 7 21 0 3 6 2>
 <16 2 7 18 0 3 9 3>
 <16 2 7 16 0 3 12 4>
 <16 2 7 13 0 3 17 5>
 <16 3 6 33 0 7 4 1>
 <16 3 6 25 0 7 6 2>
 <16 3 6 21 0 7 9 3>
 <16 3 6 18 0 7 12 4>
 <16 3 6 15 0 7 17 5>
 <16 4 2 36 0 6 4 1>
 <16 4 2 27 0 6 6 2>
 <16 4 2 23 0 6 9 3>
 <16 4 2 20 0 6 12 4>
 <16 4 2 17 0 6 17 5>
 <16 5 1 6 0 2 5 1>
 <16 5 1 4 0 2 8 2>
 <16 5 1 3 0 2 12 3>
 <16 5 1 3 0 2 15 4>
 <16 5 1 2 0 2 22 5>
 <16 6 4 96 0 1 4 1>
 <16 6 4 73 0 1 6 2>
 <16 6 4 61 0 1 9 3>
 <16 6 4 54 0 1 12 4>
 <16 6 4 45 0 1 17 5>
 <16 7 5 48 0 4 4 1>
 <16 7 5 36 0 4 6 2>
 <16 7 5 30 0 4 9 3>
 <16 7 5 27 0 4 12 4>
 <16 7 5 22 0 4 17 5>
 <16 8 10 40 0 5 4 1>
 <16 8 10 30 0 5 6 2>
 <16 8 10 25 0 5 9 3>
 <16 8 10 22 0 5 12 4>
 <16 8 10 19 0 5 17 5>
 <16 9 12 79 0 10 4 1>
 <16 9 12 60 0 10 6 2>
 <16 9 12 50 0 10 9 3>
 <16 9 12 45 0 10 12 4>
 <16 9 12 37 0 10 17 5>
 <16 10 11 60 0 12 3 1>
 <16 10 11 46 0 12 5 2>
 <16 10 11 38 0 12 7 3>
 <16 10 11 34 0 12 9 4>
 <16 10 11 28 0 12 13 5>
 <16 11 9 39 0 11 5 1>
 <16 11 9 30 0 11 8 2>
 <16 11 9 25 0 11 12 3>
 <16 11 9 22 0 11 15 4>
 <16 11 9 18 0 11 22 5>
 <16 12 14 34 0 9 5 1>
 <16 12 14 26 0 9 8 2>
 <16 12 14 21 0 9 12 3>
 <16 12 14 19 0 9 15 4>
 <16 12 14 16 0 9 22 5>
 <16 13 8 54 0 14 5 1>
 <16 13 8 41 0 14 8 2>
 <16 13 8 34 0 14 12 3>
 <16 13 8 30 0 14 15 4>
 <16 13 8 25 0 14 22 5>
 <16 14 13 20 0 8 3 1>
 <16 14 13 15 0 8 5 2>
 <16 14 13 12 0 8 7 3>
 <16 14 13 11 0 8 9 4>
 <16 14 13 9 0 8 13 5>
 <16 15 15 52 1 13 3 1>
 <16 15 15 40 1 13 5 2>
 <16 15 15 33 1 13 7 3>
 <16 15 15 29 1 13 9 4>
 <16 15 15 24 1 13 13 5>
 <17 1 6 82 0 16 4 1>
 <17 1 6 63 0 16 6 2>
 <17 1 6 52 0 16 9 3>
 <17 1 6 46 0 16 12 4>
 <17 1 6 39 0 16 17 5>
 <17 2 3 12 0 6 5 1>
 <17 2 3 9 0 6 8 2>
 <17 2 3 7 0 6 12 3>
 <17 2 3 6 0 6 15 4>
 <17 2 3 5 0 6 22 5>
 <17 3 4 11 0 3 4 1>
 <17 3 4 8 0 3 6 2>
 <17 3 4 7 0 3 9 3>
 <17 3 4 6 0 3 12 4>
 <17 3 4 5 0 3 17 5>
 <17 4 5 61 0 4 3 1>
 <17 4 5 46 0 4 5 2>
 <17 4 5 39 0 4 7 3>
 <17 4 5 34 0 4 9 4>
 <17 4 5 29 0 4 13 5>
 <17 5 2 21 0 5 3 1>
 <17 5 2 16 0 5 5 2>
 <17 5 2 13 0 5 7 3>
 <17 5 2 12 0 5 9 4>
 <17 5 2 10 0 5 13 5>
 <17 6 1 21 0 2 3 1>
 <17 6 1 16 0 2 5 2>
 <17 6 1 13 0 2 7 3>
 <17 6 1 12 0 2 9 4>
 <17 6 1 10 0 2 13 5>
 <17 7 7 34 0 1 3 1>
 <17 7 7 26 0 1 5 2>
 <17 7 7 21 0 1 7 3>
 <17 7 7 19 0 1 9 4>
 <17 7 7 16 0 1 13 5>
 <17 8 13 86 0 7 5 1>
 <17 8 13 66 0 7 8 2>
 <17 8 13 55 0 7 12 3>
 <17 8 13 49 0 7 15 4>
 <17 8 13 40 0 7 22 5>
 <17 9 15 53 0 13 4 1>
 <17 9 15 40 0 13 6 2>
 <17 9 15 34 0 13 9 3>
 <17 9 15 30 0 13 12 4>
 <17 9 15 25 0 13 17 5>
 <17 10 9 7 0 15 4 1>
 <17 10 9 5 0 15 6 2>
 <17 10 9 4 0 15 9 3>
 <17 10 9 4 0 15 12 4>
 <17 10 9 3 0 15 17 5>
 <17 11 10 4 0 9 5 1>
 <17 11 10 3 0 9 8 2>
 <17 11 10 2 0 9 12 3>
 <17 11 10 2 0 9 15 4>
 <17 11 10 1 0 9 22 5>
 <17 12 8 95 0 10 5 1>
 <17 12 8 73 0 10 8 2>
 <17 12 8 61 0 10 12 3>
 <17 12 8 54 0 10 15 4>
 <17 12 8 45 0 10 22 5>
 <17 13 11 62 0 8 4 1>
 <17 13 11 47 0 8 6 2>
 <17 13 11 40 0 8 9 3>
 <17 13 11 35 0 8 12 4>
 <17 13 11 29 0 8 17 5>
 <17 14 14 54 0 11 3 1>
 <17 14 14 41 0 11 5 2>
 <17 14 14 34 0 11 7 3>
 <17 14 14 30 0 11 9 4>
 <17 14 14 25 0 11 13 5>
 <17 15 12 82 1 14 3 1>
 <17 15 12 63 1 14 5 2>
 <17 15 12 52 1 14 7 3>
 <17 15 12 46 1 14 9 4>
 <17 15 12 39 1 14 13 5>
 <18 1 6 72 0 16 3 1>
 <18 1 6 55 0 16 5 2>
 <18 1 6 46 0 16 7 3>
 <18 1 6 41 0 16 9 4>
 <18 1 6 34 0 16 13 5>
 <18 2 1 13 0 6 3 1>
 <18 2 1 10 0 6 5 2>
 <18 2 1 8 0 6 7 3>
 <18 2 1 7 0 6 9 4>
 <18 2 1 6 0 6 13 5>
 <18 3 4 46 0 1 5 1>
 <18 3 4 35 0 1 8 2>
 <18 3 4 29 0 1 12 3>
 <18 3 4 26 0 1 15 4>
 <18 3 4 21 0 1 22 5>
 <18 4 7 97 0 4 4 1>
 <18 4 7 74 0 4 6 2>
 <18 4 7 62 0 4 9 3>
 <18 4 7 55 0 4 12 4>
 <18 4 7 46 0 4 17 5>
 <18 5 2 87 0 7 4 1>
 <18 5 2 66 0 7 6 2>
 <18 5 2 56 0 7 9 3>
 <18 5 2 49 0 7 12 4>
 <18 5 2 41 0 7 17 5>
 <18 6 5 87 0 2 5 1>
 <18 6 5 66 0 2 8 2>
 <18 6 5 56 0 2 12 3>
 <18 6 5 49 0 2 15 4>
 <18 6 5 41 0 2 22 5>
 <18 7 3 11 0 5 4 1>
 <18 7 3 8 0 5 6 2>
 <18 7 3 7 0 5 9 3>
 <18 7 3 6 0 5 12 4>
 <18 7 3 5 0 5 17 5>
 <18 8 8 45 0 3 5 1>
 <18 8 8 34 0 3 8 2>
 <18 8 8 29 0 3 12 3>
 <18 8 8 25 0 3 15 4>
 <18 8 8 21 0 3 22 5>
 <18 9 15 85 0 8 5 1>
 <18 9 15 65 0 8 8 2>
 <18 9 15 54 0 8 12 3>
 <18 9 15 48 0 8 15 4>
 <18 9 15 40 0 8 22 5>
 <18 10 12 66 0 15 4 1>
 <18 10 12 50 0 15 6 2>
 <18 10 12 42 0 15 9 3>
 <18 10 12 37 0 15 12 4>
 <18 10 12 31 0 15 17 5>
 <18 11 9 43 0 12 4 1>
 <18 11 9 33 0 12 6 2>
 <18 11 9 27 0 12 9 3>
 <18 11 9 24 0 12 12 4>
 <18 11 9 20 0 12 17 5>
 <18 12 10 39 0 9 3 1>
 <18 12 10 30 0 9 5 2>
 <18 12 10 25 0 9 7 3>
 <18 12 10 22 0 9 9 4>
 <18 12 10 18 0 9 13 5>
 <18 13 14 34 0 10 5 1>
 <18 13 14 26 0 10 8 2>
 <18 13 14 21 0 10 12 3>
 <18 13 14 19 0 10 15 4>
 <18 13 14 16 0 10 22 5>
 <18 14 11 30 0 14 4 1>
 <18 14 11 23 0 14 6 2>
 <18 14 11 19 0 14 9 3>
 <18 14 11 17 0 14 12 4>
 <18 14 11 14 0 14 17 5>
 <18 15 13 55 1 11 5 1>
 <18 15 13 42 1 11 8 2>
 <18 15 13 35 1 11 12 3>
 <18 15 13 31 1 11 15 4>
 <18 15 13 26 1 11 22 5>
 <19 1 2 39 0 16 3 1>
 <19 1 2 30 0 16 5 2>
 <19 1 2 25 0 16 7 3>
 <19 1 2 22 0 16 9 4>
 <19 1 2 18 0 16 13 5>
 <19 2 6 19 0 2 5 1>
 <19 2 6 14 0 2 8 2>
 <19 2 6 12 0 2 12 3>
 <19 2 6 10 0 2 15 4>
 <19 2 6 9 0 2 22 5>
 <19 3 1 19 0 6 5 1>
 <19 3 1 14 0 6 8 2>
 <19 3 1 12 0 6 12 3>
 <19 3 1 10 0 6 15 4>
 <19 3 1 9 0 6 22 5>
 <19 4 5 73 0 1 5 1>
 <19 4 5 56 0 1 8 2>
 <19 4 5 47 0 1 12 3>
 <19 4 5 41 0 1 15 4>
 <19 4 5 34 0 1 22 5>
 <19 5 7 63 0 5 4 1>
 <19 5 7 48 0 5 6 2>
 <19 5 7 40 0 5 9 3>
 <19 5 7 36 0 5 12 4>
 <19 5 7 30 0 5 17 5>
 <19 6 4 30 0 7 5 1>
 <19 6 4 23 0 7 8 2>
 <19 6 4 19 0 7 12 3>
 <19 6 4 17 0 7 15 4>
 <19 6 4 14 0 7 22 5>
 <19 7 3 69 0 4 5 1>
 <19 7 3 53 0 4 8 2>
 <19 7 3 44 0 4 12 3>
 <19 7 3 39 0 4 15 4>
 <19 7 3 32 0 4 22 5>
 <19 8 10 36 0 3 3 1>
 <19 8 10 27 0 3 5 2>
 <19 8 10 23 0 3 7 3>
 <19 8 10 20 0 3 9 4>
 <19 8 10 17 0 3 13 5>
 <19 9 8 13 0 10 3 1>
 <19 9 8 10 0 10 5 2>
 <19 9 8 8 0 10 7 3>
 <19 9 8 7 0 10 9 4>
 <19 9 8 6 0 10 13 5>
 <19 10 11 96 0 8 5 1>
 <19 10 11 73 0 8 8 2>
 <19 10 11 61 0 8 12 3>
 <19 10 11 54 0 8 15 4>
 <19 10 11 45 0 8 22 5>
 <19 11 13 27 0 11 4 1>
 <19 11 13 20 0 11 6 2>
 <19 11 13 17 0 11 9 3>
 <19 11 13 15 0 11 12 4>
 <19 11 13 12 0 11 17 5>
 <19 12 14 59 0 13 5 1>
 <19 12 14 45 0 13 8 2>
 <19 12 14 38 0 13 12 3>
 <19 12 14 33 0 13 15 4>
 <19 12 14 28 0 13 22 5>
 <19 13 15 76 0 14 3 1>
 <19 13 15 58 0 14 5 2>
 <19 13 15 49 0 14 7 3>
 <19 13 15 43 0 14 9 4>
 <19 13 15 36 0 14 13 5>
 <19 14 12 62 0 15 5 1>
 <19 14 12 47 0 15 8 2>
 <19 14 12 40 0 15 12 3>
 <19 14 12 35 0 15 15 4>
 <19 14 12 29 0 15 22 5>
 <19 15 9 14 1 12 3 1>
 <19 15 9 10 1 12 5 2>
 <19 15 9 9 1 12 7 3>
 <19 15 9 8 1 12 9 4>
 <19 15 9 6 1 12 13 5>
 <20 1 2 7 0 16 5 1>
 <20 1 2 5 0 16 8 2>
 <20 1 2 4 0 16 12 3>
 <20 1 2 4 0 16 15 4>
 <20 1 2 3 0 16 22 5>
 <20 2 5 14 0 2 4 1>
 <20 2 5 10 0 2 6 2>
 <20 2 5 9 0 2 9 3>
 <20 2 5 8 0 2 12 4>
 <20 2 5 6 0 2 17 5>
 <20 3 4 79 0 5 4 1>
 <20 3 4 60 0 5 6 2>
 <20 3 4 50 0 5 9 3>
 <20 3 4 45 0 5 12 4>
 <20 3 4 37 0 5 17 5>
 <20 4 3 27 0 4 3 1>
 <20 4 3 20 0 4 5 2>
 <20 4 3 17 0 4 7 3>
 <20 4 3 15 0 4 9 4>
 <20 4 3 12 0 4 13 5>
 <20 5 7 43 0 3 5 1>
 <20 5 7 33 0 3 8 2>
 <20 5 7 27 0 3 12 3>
 <20 5 7 24 0 3 15 4>
 <20 5 7 20 0 3 22 5>
 <20 6 1 96 0 7 3 1>
 <20 6 1 73 0 7 5 2>
 <20 6 1 61 0 7 7 3>
 <20 6 1 54 0 7 9 4>
 <20 6 1 45 0 7 13 5>
 <20 7 6 24 0 1 3 1>
 <20 7 6 18 0 1 5 2>
 <20 7 6 15 0 1 7 3>
 <20 7 6 13 0 1 9 4>
 <20 7 6 11 0 1 13 5>
 <20 8 12 30 0 6 5 1>
 <20 8 12 23 0 6 8 2>
 <20 8 12 19 0 6 12 3>
 <20 8 12 17 0 6 15 4>
 <20 8 12 14 0 6 22 5>
 <20 9 8 27 0 12 5 1>
 <20 9 8 20 0 12 8 2>
 <20 9 8 17 0 12 12 3>
 <20 9 8 15 0 12 15 4>
 <20 9 8 12 0 12 22 5>
 <20 10 13 2 0 8 4 1>
 <20 10 13 1 0 8 6 2>
 <20 10 13 1 0 8 9 3>
 <20 10 13 1 0 8 12 4>
 <20 10 13 0 0 8 17 5>
 <20 11 9 69 0 13 5 1>
 <20 11 9 53 0 13 8 2>
 <20 11 9 44 0 13 12 3>
 <20 11 9 39 0 13 15 4>
 <20 11 9 32 0 13 22 5>
 <20 12 15 75 0 9 4 1>
 <20 12 15 57 0 9 6 2>
 <20 12 15 48 0 9 9 3>
 <20 12 15 42 0 9 12 4>
 <20 12 15 35 0 9 17 5>
 <20 13 14 34 0 15 5 1>
 <20 13 14 26 0 15 8 2>
 <20 13 14 21 0 15 12 3>
 <20 13 14 19 0 15 15 4>
 <20 13 14 16 0 15 22 5>
 <20 14 11 79 0 14 3 1>
 <20 14 11 60 0 14 5 2>
 <20 14 11 50 0 14 7 3>
 <20 14 11 45 0 14 9 4>
 <20 14 11 37 0 14 13 5>
 <20 15 10 96 1 11 4 1>
 <20 15 10 73 1 11 6 2>
 <20 15 10 61 1 11 9 3>
 <20 15 10 54 1 11 12 4>
 <20 15 10 45 1 11 17 5>
};
